(set-logic HORN)
(declare-fun inv ((Array Int Int) (Array Int Int) Int Int) Bool)
(declare-fun fail () Bool)
(assert (forall ((a (Array Int Int)) (b (Array Int Int))) (inv a b 0 777777)))
(assert (forall ((a (Array Int Int))
         (b (Array Int Int))
         (i Int)
         (a1 (Array Int Int))
         (b1 (Array Int Int))
         (i1 Int)
         (N Int))
  (let ((a!1 (and (inv a b i N)
                  (< i N)
                  (= i1 (+ i 1))
                  (= (store a i i) a1)
                  (= (store b i (- N i)) b1))))
    (=> a!1 (inv a1 b1 i1 N)))))
(assert (forall ((i Int) (N Int) (a (Array Int Int)) (b (Array Int Int)) (i1 Int))
  (let ((a!1 (not (= N (+ (select a i1) (select b i1))))))
    (=> (and (inv a b i N) (>= i N) (< 0 i1) (< i1 N) a!1) fail))))
(assert (not fail))
(check-sat)
